\Problem name: Modelo Montagem de Elenco

Minimize
OBJROW: -3.80000 y(0,0) -2.11000 y(0,1) -2.72000 y(0,2) -3.10000 y(0,3) -5.07000 y(0,4) -4.96000 y(0,5) -3.92000 y(0,6) -5.18000 y(0,7) -6.73000 y(0,8) -5.43000 y(0,9)
 -4.74000 y(0,10) -6.78000 y(0,11) -3.67000 y(0,12) -4.28000 y(0,13) -3.86000 y(0,14) -1.57000 y(0,15) -2.04000 y(0,16) -2.48000 y(0,17) -1.60000 y(0,18) -3.69000 y(0,19)
 -3.41000 y(0,20) -4.62000 y(0,21) -4.60000 y(0,22) -4.34000 y(0,23) -3.62000 y(0,24) -2.54000 y(0,25) -4.44000 y(0,26) -5.23000 y(0,27) -4.13000 y(0,28) -6.25000 y(0,29)
 -2.40000 y(0,30) -2.35000 y(0,31) -3.80000 y(1,0) -2.11000 y(1,1) -2.72000 y(1,2) -3.10000 y(1,3) -5.07000 y(1,4) -4.96000 y(1,5) -3.92000 y(1,6) -5.18000 y(1,7)
 -6.73000 y(1,8) -5.43000 y(1,9) -4.74000 y(1,10) -6.78000 y(1,11) -3.67000 y(1,12) -4.28000 y(1,13) -3.86000 y(1,14) -1.57000 y(1,15) -2.04000 y(1,16) -2.48000 y(1,17)
 -1.60000 y(1,18) -3.69000 y(1,19) -3.41000 y(1,20) -4.62000 y(1,21) -4.60000 y(1,22) -4.34000 y(1,23) -3.62000 y(1,24) -2.54000 y(1,25) -4.44000 y(1,26) -5.23000 y(1,27)
 -4.13000 y(1,28) -6.25000 y(1,29) -2.40000 y(1,30) -2.35000 y(1,31) -3.80000 y(2,0) -2.11000 y(2,1) -2.72000 y(2,2) -3.10000 y(2,3) -5.07000 y(2,4) -4.96000 y(2,5)
 -3.92000 y(2,6) -5.18000 y(2,7) -6.73000 y(2,8) -5.43000 y(2,9) -4.74000 y(2,10) -6.78000 y(2,11) -3.67000 y(2,12) -4.28000 y(2,13) -3.86000 y(2,14) -1.57000 y(2,15)
 -2.04000 y(2,16) -2.48000 y(2,17) -1.60000 y(2,18) -3.69000 y(2,19) -3.41000 y(2,20) -4.62000 y(2,21) -4.60000 y(2,22) -4.34000 y(2,23) -3.62000 y(2,24) -2.54000 y(2,25)
 -4.44000 y(2,26) -5.23000 y(2,27) -4.13000 y(2,28) -6.25000 y(2,29) -2.40000 y(2,30) -2.35000 y(2,31) -3.80000 y(3,0) -2.11000 y(3,1) -2.72000 y(3,2) -3.10000 y(3,3)
 -5.07000 y(3,4) -4.96000 y(3,5) -3.92000 y(3,6) -5.18000 y(3,7) -6.73000 y(3,8) -5.43000 y(3,9) -4.74000 y(3,10) -6.78000 y(3,11) -3.67000 y(3,12) -4.28000 y(3,13)
 -3.86000 y(3,14) -1.57000 y(3,15) -2.04000 y(3,16) -2.48000 y(3,17) -1.60000 y(3,18) -3.69000 y(3,19) -3.41000 y(3,20) -4.62000 y(3,21) -4.60000 y(3,22) -4.34000 y(3,23)
 -3.62000 y(3,24) -2.54000 y(3,25) -4.44000 y(3,26) -5.23000 y(3,27) -4.13000 y(3,28) -6.25000 y(3,29) -2.40000 y(3,30) -2.35000 y(3,31) -3.80000 y(4,0) -2.11000 y(4,1)
 -2.72000 y(4,2) -3.10000 y(4,3) -5.07000 y(4,4) -4.96000 y(4,5) -3.92000 y(4,6) -5.18000 y(4,7) -6.73000 y(4,8) -5.43000 y(4,9) -4.74000 y(4,10) -6.78000 y(4,11)
 -3.67000 y(4,12) -4.28000 y(4,13) -3.86000 y(4,14) -1.57000 y(4,15) -2.04000 y(4,16) -2.48000 y(4,17) -1.60000 y(4,18) -3.69000 y(4,19) -3.41000 y(4,20) -4.62000 y(4,21)
 -4.60000 y(4,22) -4.34000 y(4,23) -3.62000 y(4,24) -2.54000 y(4,25) -4.44000 y(4,26) -5.23000 y(4,27) -4.13000 y(4,28) -6.25000 y(4,29) -2.40000 y(4,30) -2.35000 y(4,31)
 -3.80000 y(5,0) -2.11000 y(5,1) -2.72000 y(5,2) -3.10000 y(5,3) -5.07000 y(5,4) -4.96000 y(5,5) -3.92000 y(5,6) -5.18000 y(5,7) -6.73000 y(5,8) -5.43000 y(5,9)
 -4.74000 y(5,10) -6.78000 y(5,11) -3.67000 y(5,12) -4.28000 y(5,13) -3.86000 y(5,14) -1.57000 y(5,15) -2.04000 y(5,16) -2.48000 y(5,17) -1.60000 y(5,18) -3.69000 y(5,19)
 -3.41000 y(5,20) -4.62000 y(5,21) -4.60000 y(5,22) -4.34000 y(5,23) -3.62000 y(5,24) -2.54000 y(5,25) -4.44000 y(5,26) -5.23000 y(5,27) -4.13000 y(5,28) -6.25000 y(5,29)
 -2.40000 y(5,30) -2.35000 y(5,31)
Subject To
restricao3.6_0:  y(0,0) + y(1,0) + y(2,0) + y(3,0) + y(4,0) + y(5,0) <= 1
restricao3.6_1:  y(0,1) + y(1,1) + y(2,1) + y(3,1) + y(4,1) + y(5,1) <= 1
restricao3.6_2:  y(0,2) + y(1,2) + y(2,2) + y(3,2) + y(4,2) + y(5,2) <= 1
restricao3.6_3:  y(0,3) + y(1,3) + y(2,3) + y(3,3) + y(4,3) + y(5,3) <= 1
restricao3.6_4:  y(0,4) + y(1,4) + y(2,4) + y(3,4) + y(4,4) + y(5,4) <= 1
restricao3.6_5:  y(0,5) + y(1,5) + y(2,5) + y(3,5) + y(4,5) + y(5,5) <= 1
restricao3.6_6:  y(0,6) + y(1,6) + y(2,6) + y(3,6) + y(4,6) + y(5,6) <= 1
restricao3.6_7:  y(0,7) + y(1,7) + y(2,7) + y(3,7) + y(4,7) + y(5,7) <= 1
restricao3.6_8:  y(0,8) + y(1,8) + y(2,8) + y(3,8) + y(4,8) + y(5,8) <= 1
restricao3.6_9:  y(0,9) + y(1,9) + y(2,9) + y(3,9) + y(4,9) + y(5,9) <= 1
restricao3.6_10:  y(0,10) + y(1,10) + y(2,10) + y(3,10) + y(4,10) + y(5,10) <= 1
restricao3.6_11:  y(0,11) + y(1,11) + y(2,11) + y(3,11) + y(4,11) + y(5,11) <= 1
restricao3.6_12:  y(0,12) + y(1,12) + y(2,12) + y(3,12) + y(4,12) + y(5,12) <= 1
restricao3.6_13:  y(0,13) + y(1,13) + y(2,13) + y(3,13) + y(4,13) + y(5,13) <= 1
restricao3.6_14:  y(0,14) + y(1,14) + y(2,14) + y(3,14) + y(4,14) + y(5,14) <= 1
restricao3.6_15:  y(0,15) + y(1,15) + y(2,15) + y(3,15) + y(4,15) + y(5,15) <= 1
restricao3.6_16:  y(0,16) + y(1,16) + y(2,16) + y(3,16) + y(4,16) + y(5,16) <= 1
restricao3.6_17:  y(0,17) + y(1,17) + y(2,17) + y(3,17) + y(4,17) + y(5,17) <= 1
restricao3.6_18:  y(0,18) + y(1,18) + y(2,18) + y(3,18) + y(4,18) + y(5,18) <= 1
restricao3.6_19:  y(0,19) + y(1,19) + y(2,19) + y(3,19) + y(4,19) + y(5,19) <= 1
restricao3.6_20:  y(0,20) + y(1,20) + y(2,20) + y(3,20) + y(4,20) + y(5,20) <= 1
restricao3.6_21:  y(0,21) + y(1,21) + y(2,21) + y(3,21) + y(4,21) + y(5,21) <= 1
restricao3.6_22:  y(0,22) + y(1,22) + y(2,22) + y(3,22) + y(4,22) + y(5,22) <= 1
restricao3.6_23:  y(0,23) + y(1,23) + y(2,23) + y(3,23) + y(4,23) + y(5,23) <= 1
restricao3.6_24:  y(0,24) + y(1,24) + y(2,24) + y(3,24) + y(4,24) + y(5,24) <= 1
restricao3.6_25:  y(0,25) + y(1,25) + y(2,25) + y(3,25) + y(4,25) + y(5,25) <= 1
restricao3.6_26:  y(0,26) + y(1,26) + y(2,26) + y(3,26) + y(4,26) + y(5,26) <= 1
restricao3.6_27:  y(0,27) + y(1,27) + y(2,27) + y(3,27) + y(4,27) + y(5,27) <= 1
restricao3.6_28:  y(0,28) + y(1,28) + y(2,28) + y(3,28) + y(4,28) + y(5,28) <= 1
restricao3.6_29:  y(0,29) + y(1,29) + y(2,29) + y(3,29) + y(4,29) + y(5,29) <= 1
restricao3.6_30:  y(0,30) + y(1,30) + y(2,30) + y(3,30) + y(4,30) + y(5,30) <= 1
restricao3.6_31:  y(0,31) + y(1,31) + y(2,31) + y(3,31) + y(4,31) + y(5,31) <= 1
restricao_12jogadores:  y(0,0) + y(0,1) + y(0,2) + y(0,3) + y(0,4) + y(0,5) + y(0,6) + y(0,7) + y(0,8) + y(0,9)
 + y(0,10) + y(0,11) + y(0,12) + y(0,13) + y(0,14) + y(0,15) + y(0,16) + y(0,17) + y(0,18) + y(0,19)
 + y(0,20) + y(0,21) + y(0,22) + y(0,23) + y(0,24) + y(0,25) + y(0,26) + y(0,27) + y(0,28) + y(0,29)
 + y(0,30) + y(0,31) + y(1,0) + y(1,1) + y(1,2) + y(1,3) + y(1,4) + y(1,5) + y(1,6) + y(1,7)
 + y(1,8) + y(1,9) + y(1,10) + y(1,11) + y(1,12) + y(1,13) + y(1,14) + y(1,15) + y(1,16) + y(1,17)
 + y(1,18) + y(1,19) + y(1,20) + y(1,21) + y(1,22) + y(1,23) + y(1,24) + y(1,25) + y(1,26) + y(1,27)
 + y(1,28) + y(1,29) + y(1,30) + y(1,31) + y(2,0) + y(2,1) + y(2,2) + y(2,3) + y(2,4) + y(2,5)
 + y(2,6) + y(2,7) + y(2,8) + y(2,9) + y(2,10) + y(2,11) + y(2,12) + y(2,13) + y(2,14) + y(2,15)
 + y(2,16) + y(2,17) + y(2,18) + y(2,19) + y(2,20) + y(2,21) + y(2,22) + y(2,23) + y(2,24) + y(2,25)
 + y(2,26) + y(2,27) + y(2,28) + y(2,29) + y(2,30) + y(2,31) + y(3,0) + y(3,1) + y(3,2) + y(3,3)
 + y(3,4) + y(3,5) + y(3,6) + y(3,7) + y(3,8) + y(3,9) + y(3,10) + y(3,11) + y(3,12) + y(3,13)
 + y(3,14) + y(3,15) + y(3,16) + y(3,17) + y(3,18) + y(3,19) + y(3,20) + y(3,21) + y(3,22) + y(3,23)
 + y(3,24) + y(3,25) + y(3,26) + y(3,27) + y(3,28) + y(3,29) + y(3,30) + y(3,31) + y(4,0) + y(4,1)
 + y(4,2) + y(4,3) + y(4,4) + y(4,5) + y(4,6) + y(4,7) + y(4,8) + y(4,9) + y(4,10) + y(4,11)
 + y(4,12) + y(4,13) + y(4,14) + y(4,15) + y(4,16) + y(4,17) + y(4,18) + y(4,19) + y(4,20) + y(4,21)
 + y(4,22) + y(4,23) + y(4,24) + y(4,25) + y(4,26) + y(4,27) + y(4,28) + y(4,29) + y(4,30) + y(4,31)
 + y(5,0) + y(5,1) + y(5,2) + y(5,3) + y(5,4) + y(5,5) + y(5,6) + y(5,7) + y(5,8) + y(5,9)
 + y(5,10) + y(5,11) + y(5,12) + y(5,13) + y(5,14) + y(5,15) + y(5,16) + y(5,17) + y(5,18) + y(5,19)
 + y(5,20) + y(5,21) + y(5,22) + y(5,23) + y(5,24) + y(5,25) + y(5,26) + y(5,27) + y(5,28) + y(5,29)
 + y(5,30) + y(5,31) = 12
restricao3.5_0:  y(0,0) + y(0,1) + y(0,2) + y(0,3) + y(0,4) = 2
restricao3.5_1:  y(1,5) + y(1,6) + y(1,7) + y(1,8) = 1
restricao3.5_2:  y(2,9) + y(2,10) + y(2,11) + y(2,12) = 2
restricao3.5_3:  y(3,13) + y(3,14) + y(3,15) + y(3,16) + y(3,17) + y(3,18) = 3
restricao3.5_4:  y(4,19) + y(4,20) + y(4,21) + y(4,22) + y(4,23) + y(4,24) = 1
restricao3.5_5:  y(5,25) + y(5,26) + y(5,27) + y(5,28) + y(5,29) + y(5,30) + y(5,31) = 3
restricao3.3_5:  13.02000 y(0,0) + 9.98000 y(0,1) + 9.94000 y(0,2) + 13.44000 y(0,3) + 12.68000 y(0,4) + 10.11000 y(0,5) + 11.18000 y(0,6) + 11.46000 y(0,7) + 16.34000 y(0,8) + 12.84000 y(0,9)
 + 9.56000 y(0,10) + 17.51000 y(0,11) + 8.70000 y(0,12) + 13.76000 y(0,13) + 11.52000 y(0,14) + 8.35000 y(0,15) + 7.22000 y(0,16) + 5.96000 y(0,17) + 5.88000 y(0,18) + 9.74000 y(0,19)
 + 9.71000 y(0,20) + 12.95000 y(0,21) + 12.73000 y(0,22) + 11.54000 y(0,23) + 9.80000 y(0,24) + 7.23000 y(0,25) + 11.76000 y(0,26) + 16.07000 y(0,27) + 10.47000 y(0,28) + 12.24000 y(0,29)
 + 8.64000 y(0,30) + 7.26000 y(0,31) + 13.02000 y(1,0) + 9.98000 y(1,1) + 9.94000 y(1,2) + 13.44000 y(1,3) + 12.68000 y(1,4) + 10.11000 y(1,5) + 11.18000 y(1,6) + 11.46000 y(1,7)
 + 16.34000 y(1,8) + 12.84000 y(1,9) + 9.56000 y(1,10) + 17.51000 y(1,11) + 8.70000 y(1,12) + 13.76000 y(1,13) + 11.52000 y(1,14) + 8.35000 y(1,15) + 7.22000 y(1,16) + 5.96000 y(1,17)
 + 5.88000 y(1,18) + 9.74000 y(1,19) + 9.71000 y(1,20) + 12.95000 y(1,21) + 12.73000 y(1,22) + 11.54000 y(1,23) + 9.80000 y(1,24) + 7.23000 y(1,25) + 11.76000 y(1,26) + 16.07000 y(1,27)
 + 10.47000 y(1,28) + 12.24000 y(1,29) + 8.64000 y(1,30) + 7.26000 y(1,31) + 13.02000 y(2,0) + 9.98000 y(2,1) + 9.94000 y(2,2) + 13.44000 y(2,3) + 12.68000 y(2,4) + 10.11000 y(2,5)
 + 11.18000 y(2,6) + 11.46000 y(2,7) + 16.34000 y(2,8) + 12.84000 y(2,9) + 9.56000 y(2,10) + 17.51000 y(2,11) + 8.70000 y(2,12) + 13.76000 y(2,13) + 11.52000 y(2,14) + 8.35000 y(2,15)
 + 7.22000 y(2,16) + 5.96000 y(2,17) + 5.88000 y(2,18) + 9.74000 y(2,19) + 9.71000 y(2,20) + 12.95000 y(2,21) + 12.73000 y(2,22) + 11.54000 y(2,23) + 9.80000 y(2,24) + 7.23000 y(2,25)
 + 11.76000 y(2,26) + 16.07000 y(2,27) + 10.47000 y(2,28) + 12.24000 y(2,29) + 8.64000 y(2,30) + 7.26000 y(2,31) + 13.02000 y(3,0) + 9.98000 y(3,1) + 9.94000 y(3,2) + 13.44000 y(3,3)
 + 12.68000 y(3,4) + 10.11000 y(3,5) + 11.18000 y(3,6) + 11.46000 y(3,7) + 16.34000 y(3,8) + 12.84000 y(3,9) + 9.56000 y(3,10) + 17.51000 y(3,11) + 8.70000 y(3,12) + 13.76000 y(3,13)
 + 11.52000 y(3,14) + 8.35000 y(3,15) + 7.22000 y(3,16) + 5.96000 y(3,17) + 5.88000 y(3,18) + 9.74000 y(3,19) + 9.71000 y(3,20) + 12.95000 y(3,21) + 12.73000 y(3,22) + 11.54000 y(3,23)
 + 9.80000 y(3,24) + 7.23000 y(3,25) + 11.76000 y(3,26) + 16.07000 y(3,27) + 10.47000 y(3,28) + 12.24000 y(3,29) + 8.64000 y(3,30) + 7.26000 y(3,31) + 13.02000 y(4,0) + 9.98000 y(4,1)
 + 9.94000 y(4,2) + 13.44000 y(4,3) + 12.68000 y(4,4) + 10.11000 y(4,5) + 11.18000 y(4,6) + 11.46000 y(4,7) + 16.34000 y(4,8) + 12.84000 y(4,9) + 9.56000 y(4,10) + 17.51000 y(4,11)
 + 8.70000 y(4,12) + 13.76000 y(4,13) + 11.52000 y(4,14) + 8.35000 y(4,15) + 7.22000 y(4,16) + 5.96000 y(4,17) + 5.88000 y(4,18) + 9.74000 y(4,19) + 9.71000 y(4,20) + 12.95000 y(4,21)
 + 12.73000 y(4,22) + 11.54000 y(4,23) + 9.80000 y(4,24) + 7.23000 y(4,25) + 11.76000 y(4,26) + 16.07000 y(4,27) + 10.47000 y(4,28) + 12.24000 y(4,29) + 8.64000 y(4,30) + 7.26000 y(4,31)
 + 13.02000 y(5,0) + 9.98000 y(5,1) + 9.94000 y(5,2) + 13.44000 y(5,3) + 12.68000 y(5,4) + 10.11000 y(5,5) + 11.18000 y(5,6) + 11.46000 y(5,7) + 16.34000 y(5,8) + 12.84000 y(5,9)
 + 9.56000 y(5,10) + 17.51000 y(5,11) + 8.70000 y(5,12) + 13.76000 y(5,13) + 11.52000 y(5,14) + 8.35000 y(5,15) + 7.22000 y(5,16) + 5.96000 y(5,17) + 5.88000 y(5,18) + 9.74000 y(5,19)
 + 9.71000 y(5,20) + 12.95000 y(5,21) + 12.73000 y(5,22) + 11.54000 y(5,23) + 9.80000 y(5,24) + 7.23000 y(5,25) + 11.76000 y(5,26) + 16.07000 y(5,27) + 10.47000 y(5,28) + 12.24000 y(5,29)
 + 8.64000 y(5,30) + 7.26000 y(5,31) <= 193.35000
Bounds
 0 <= y(0,0) <= 1
 0 <= y(0,1) <= 1
 0 <= y(0,2) <= 1
 0 <= y(0,3) <= 1
 0 <= y(0,4) <= 1
 0 <= y(0,5) <= 1
 0 <= y(0,6) <= 1
 0 <= y(0,7) <= 1
 0 <= y(0,8) <= 1
 0 <= y(0,9) <= 1
 0 <= y(0,10) <= 1
 0 <= y(0,11) <= 1
 0 <= y(0,12) <= 1
 0 <= y(0,13) <= 1
 0 <= y(0,14) <= 1
 0 <= y(0,15) <= 1
 0 <= y(0,16) <= 1
 0 <= y(0,17) <= 1
 0 <= y(0,18) <= 1
 0 <= y(0,19) <= 1
 0 <= y(0,20) <= 1
 0 <= y(0,21) <= 1
 0 <= y(0,22) <= 1
 0 <= y(0,23) <= 1
 0 <= y(0,24) <= 1
 0 <= y(0,25) <= 1
 0 <= y(0,26) <= 1
 0 <= y(0,27) <= 1
 0 <= y(0,28) <= 1
 0 <= y(0,29) <= 1
 0 <= y(0,30) <= 1
 0 <= y(0,31) <= 1
 0 <= y(1,0) <= 1
 0 <= y(1,1) <= 1
 0 <= y(1,2) <= 1
 0 <= y(1,3) <= 1
 0 <= y(1,4) <= 1
 0 <= y(1,5) <= 1
 0 <= y(1,6) <= 1
 0 <= y(1,7) <= 1
 0 <= y(1,8) <= 1
 0 <= y(1,9) <= 1
 0 <= y(1,10) <= 1
 0 <= y(1,11) <= 1
 0 <= y(1,12) <= 1
 0 <= y(1,13) <= 1
 0 <= y(1,14) <= 1
 0 <= y(1,15) <= 1
 0 <= y(1,16) <= 1
 0 <= y(1,17) <= 1
 0 <= y(1,18) <= 1
 0 <= y(1,19) <= 1
 0 <= y(1,20) <= 1
 0 <= y(1,21) <= 1
 0 <= y(1,22) <= 1
 0 <= y(1,23) <= 1
 0 <= y(1,24) <= 1
 0 <= y(1,25) <= 1
 0 <= y(1,26) <= 1
 0 <= y(1,27) <= 1
 0 <= y(1,28) <= 1
 0 <= y(1,29) <= 1
 0 <= y(1,30) <= 1
 0 <= y(1,31) <= 1
 0 <= y(2,0) <= 1
 0 <= y(2,1) <= 1
 0 <= y(2,2) <= 1
 0 <= y(2,3) <= 1
 0 <= y(2,4) <= 1
 0 <= y(2,5) <= 1
 0 <= y(2,6) <= 1
 0 <= y(2,7) <= 1
 0 <= y(2,8) <= 1
 0 <= y(2,9) <= 1
 0 <= y(2,10) <= 1
 0 <= y(2,11) <= 1
 0 <= y(2,12) <= 1
 0 <= y(2,13) <= 1
 0 <= y(2,14) <= 1
 0 <= y(2,15) <= 1
 0 <= y(2,16) <= 1
 0 <= y(2,17) <= 1
 0 <= y(2,18) <= 1
 0 <= y(2,19) <= 1
 0 <= y(2,20) <= 1
 0 <= y(2,21) <= 1
 0 <= y(2,22) <= 1
 0 <= y(2,23) <= 1
 0 <= y(2,24) <= 1
 0 <= y(2,25) <= 1
 0 <= y(2,26) <= 1
 0 <= y(2,27) <= 1
 0 <= y(2,28) <= 1
 0 <= y(2,29) <= 1
 0 <= y(2,30) <= 1
 0 <= y(2,31) <= 1
 0 <= y(3,0) <= 1
 0 <= y(3,1) <= 1
 0 <= y(3,2) <= 1
 0 <= y(3,3) <= 1
 0 <= y(3,4) <= 1
 0 <= y(3,5) <= 1
 0 <= y(3,6) <= 1
 0 <= y(3,7) <= 1
 0 <= y(3,8) <= 1
 0 <= y(3,9) <= 1
 0 <= y(3,10) <= 1
 0 <= y(3,11) <= 1
 0 <= y(3,12) <= 1
 0 <= y(3,13) <= 1
 0 <= y(3,14) <= 1
 0 <= y(3,15) <= 1
 0 <= y(3,16) <= 1
 0 <= y(3,17) <= 1
 0 <= y(3,18) <= 1
 0 <= y(3,19) <= 1
 0 <= y(3,20) <= 1
 0 <= y(3,21) <= 1
 0 <= y(3,22) <= 1
 0 <= y(3,23) <= 1
 0 <= y(3,24) <= 1
 0 <= y(3,25) <= 1
 0 <= y(3,26) <= 1
 0 <= y(3,27) <= 1
 0 <= y(3,28) <= 1
 0 <= y(3,29) <= 1
 0 <= y(3,30) <= 1
 0 <= y(3,31) <= 1
 0 <= y(4,0) <= 1
 0 <= y(4,1) <= 1
 0 <= y(4,2) <= 1
 0 <= y(4,3) <= 1
 0 <= y(4,4) <= 1
 0 <= y(4,5) <= 1
 0 <= y(4,6) <= 1
 0 <= y(4,7) <= 1
 0 <= y(4,8) <= 1
 0 <= y(4,9) <= 1
 0 <= y(4,10) <= 1
 0 <= y(4,11) <= 1
 0 <= y(4,12) <= 1
 0 <= y(4,13) <= 1
 0 <= y(4,14) <= 1
 0 <= y(4,15) <= 1
 0 <= y(4,16) <= 1
 0 <= y(4,17) <= 1
 0 <= y(4,18) <= 1
 0 <= y(4,19) <= 1
 0 <= y(4,20) <= 1
 0 <= y(4,21) <= 1
 0 <= y(4,22) <= 1
 0 <= y(4,23) <= 1
 0 <= y(4,24) <= 1
 0 <= y(4,25) <= 1
 0 <= y(4,26) <= 1
 0 <= y(4,27) <= 1
 0 <= y(4,28) <= 1
 0 <= y(4,29) <= 1
 0 <= y(4,30) <= 1
 0 <= y(4,31) <= 1
 0 <= y(5,0) <= 1
 0 <= y(5,1) <= 1
 0 <= y(5,2) <= 1
 0 <= y(5,3) <= 1
 0 <= y(5,4) <= 1
 0 <= y(5,5) <= 1
 0 <= y(5,6) <= 1
 0 <= y(5,7) <= 1
 0 <= y(5,8) <= 1
 0 <= y(5,9) <= 1
 0 <= y(5,10) <= 1
 0 <= y(5,11) <= 1
 0 <= y(5,12) <= 1
 0 <= y(5,13) <= 1
 0 <= y(5,14) <= 1
 0 <= y(5,15) <= 1
 0 <= y(5,16) <= 1
 0 <= y(5,17) <= 1
 0 <= y(5,18) <= 1
 0 <= y(5,19) <= 1
 0 <= y(5,20) <= 1
 0 <= y(5,21) <= 1
 0 <= y(5,22) <= 1
 0 <= y(5,23) <= 1
 0 <= y(5,24) <= 1
 0 <= y(5,25) <= 1
 0 <= y(5,26) <= 1
 0 <= y(5,27) <= 1
 0 <= y(5,28) <= 1
 0 <= y(5,29) <= 1
 0 <= y(5,30) <= 1
 0 <= y(5,31) <= 1
Integers
y(0,0) y(0,1) y(0,2) y(0,3) y(0,4) y(0,5) y(0,6) y(0,7) y(0,8) y(0,9) 
y(0,10) y(0,11) y(0,12) y(0,13) y(0,14) y(0,15) y(0,16) y(0,17) y(0,18) y(0,19) 
y(0,20) y(0,21) y(0,22) y(0,23) y(0,24) y(0,25) y(0,26) y(0,27) y(0,28) y(0,29) 
y(0,30) y(0,31) y(1,0) y(1,1) y(1,2) y(1,3) y(1,4) y(1,5) y(1,6) y(1,7) 
y(1,8) y(1,9) y(1,10) y(1,11) y(1,12) y(1,13) y(1,14) y(1,15) y(1,16) y(1,17) 
y(1,18) y(1,19) y(1,20) y(1,21) y(1,22) y(1,23) y(1,24) y(1,25) y(1,26) y(1,27) 
y(1,28) y(1,29) y(1,30) y(1,31) y(2,0) y(2,1) y(2,2) y(2,3) y(2,4) y(2,5) 
y(2,6) y(2,7) y(2,8) y(2,9) y(2,10) y(2,11) y(2,12) y(2,13) y(2,14) y(2,15) 
y(2,16) y(2,17) y(2,18) y(2,19) y(2,20) y(2,21) y(2,22) y(2,23) y(2,24) y(2,25) 
y(2,26) y(2,27) y(2,28) y(2,29) y(2,30) y(2,31) y(3,0) y(3,1) y(3,2) y(3,3) 
y(3,4) y(3,5) y(3,6) y(3,7) y(3,8) y(3,9) y(3,10) y(3,11) y(3,12) y(3,13) 
y(3,14) y(3,15) y(3,16) y(3,17) y(3,18) y(3,19) y(3,20) y(3,21) y(3,22) y(3,23) 
y(3,24) y(3,25) y(3,26) y(3,27) y(3,28) y(3,29) y(3,30) y(3,31) y(4,0) y(4,1) 
y(4,2) y(4,3) y(4,4) y(4,5) y(4,6) y(4,7) y(4,8) y(4,9) y(4,10) y(4,11) 
y(4,12) y(4,13) y(4,14) y(4,15) y(4,16) y(4,17) y(4,18) y(4,19) y(4,20) y(4,21) 
y(4,22) y(4,23) y(4,24) y(4,25) y(4,26) y(4,27) y(4,28) y(4,29) y(4,30) y(4,31) 
y(5,0) y(5,1) y(5,2) y(5,3) y(5,4) y(5,5) y(5,6) y(5,7) y(5,8) y(5,9) 
y(5,10) y(5,11) y(5,12) y(5,13) y(5,14) y(5,15) y(5,16) y(5,17) y(5,18) y(5,19) 
y(5,20) y(5,21) y(5,22) y(5,23) y(5,24) y(5,25) y(5,26) y(5,27) y(5,28) y(5,29) 
y(5,30) y(5,31) 
End
